x = 15;
y = 20;
c = 65;
n = 39;

p = [11  21  60  43  32  100  93  49  12  74  71  19  61  62  91  80  71  74  44  17  83  76  36  17  52  17  48  75  63  64  17  59  23  53  15  28  52  17  89];
w = [9  3  9  3  7  6  5  6  7  2  2  10  5  7  6  5  4  2  3  2  9  9  1  10  7  8  1  6  10  3  6  4  4  8  8  1  6  6  6];
s = [1  3  10  3  8  8  10  13  11  9  12  10  11  1  5  1  7  14  7  2  12  10  14  6  12  6  8  3  2  15  6  13  2  1  10  9  5  8  13];
